sat
(model 
  (define-fun x () (_ FloatingPoint 8 24)
    (_ NaN 8 24))
  (define-fun fp.to_ieee_bv_unspecified () (_ BitVec 32)
    #xff800003)
  (define-fun b () (_ BitVec 32)
    #xff800003)
)
((b #xff800003))
(_ fp.to_ieee_bv_unspecified 8 24)
(bvudiv0 b)
sat
(model 
  (define-fun x () (_ FloatingPoint 8 24)
    (_ NaN 8 24))
  (define-fun fp.to_ieee_bv_unspecified () (_ BitVec 32)
    #xff800003)
  (define-fun b () (_ BitVec 32)
    #xff800003)
)
